
Gurobi 10.0.1 (win64) logging started Mon May  1 21:56:41 2023

Set parameter LogFile to value "logFiles/N-1L-A/N-1L-16U-18F-23V-180D-charterout.log"
Gurobi Optimizer version 10.0.1 build v10.0.1rc0 (win64)

CPU model: Intel(R) Core(TM) i7-10700 CPU @ 2.90GHz, instruction set [SSE2|AVX|AVX2]
Thread count: 8 physical cores, 16 logical processors, using up to 16 threads

Optimize a model with 215749 rows, 1802542 columns and 17651778 nonzeros
Model fingerprint: 0x47d576e7
Variable types: 4758 continuous, 1797784 integer (1797784 binary)
Coefficient statistics:
  Matrix range     [1e+00, 2e+05]
  Objective range  [4e+01, 3e+07]
  Bounds range     [1e+00, 1e+00]
  RHS range        [1e+00, 2e+06]
Presolve removed 71017 rows and 62983 columns (presolve time = 5s) ...
Presolve removed 73959 rows and 127200 columns (presolve time = 10s) ...
Presolve removed 133137 rows and 129821 columns (presolve time = 15s) ...
Presolve removed 133719 rows and 130362 columns (presolve time = 20s) ...
Presolve removed 135369 rows and 132220 columns (presolve time = 25s) ...
Presolve removed 137695 rows and 134683 columns (presolve time = 30s) ...
Presolve removed 142633 rows and 139780 columns (presolve time = 35s) ...
Presolve removed 150072 rows and 149791 columns (presolve time = 40s) ...
Presolve removed 150089 rows and 149794 columns (presolve time = 45s) ...
Presolve removed 150493 rows and 150154 columns
Presolve time: 49.11s
Presolved: 65256 rows, 1652388 columns, 9638910 nonzeros
Variable types: 3143 continuous, 1649245 integer (1649245 binary)
Deterministic concurrent LP optimizer: primal simplex, dual simplex, and barrier
Showing barrier log only...

Root barrier log...

Elapsed ordering time = 5s
Ordering time: 5.27s

Barrier statistics:
 AA' NZ     : 4.406e+06
 Factor NZ  : 1.575e+07 (roughly 800 MB of memory)
 Factor Ops : 2.723e+10 (less than 1 second per iteration)
 Threads    : 5

                  Objective                Residual
Iter       Primal          Dual         Primal    Dual     Compl     Time
   0  -5.65440222e+16  1.77426074e+12  6.33e+09 6.26e+05  1.77e+11    72s
   1  -1.04511272e+16  2.92188879e+12  1.17e+09 1.44e+05  3.31e+10    74s
   2  -1.78481615e+14  2.23340976e+12  2.02e+07 1.63e-09  5.73e+08    76s
   3  -2.82523372e+13  1.72839659e+12  3.20e+06 1.63e-09  9.14e+07    79s
   4  -4.97864600e+12  1.38484384e+12  5.64e+05 1.75e-09  1.66e+07    81s
   5  -2.91230689e+12  1.21485537e+12  3.30e+05 2.10e-09  9.81e+06    83s
   6  -5.96149109e+11  1.01148880e+12  6.79e+04 1.49e-08  2.23e+06    85s
   7  -8.93846234e+10  6.91167477e+11  1.07e+04 7.45e-09  4.84e+05    88s
   8  -3.47949370e+10  3.70420840e+11  4.58e+03 4.77e-09  2.13e+05    90s
   9  -1.37469586e+10  1.81303914e+11  2.21e+03 3.49e-09  9.55e+04    91s
  10  -6.78075857e+09  1.21753785e+11  1.42e+03 2.10e-09  6.05e+04    93s
  11   4.63552712e+09  6.41787069e+10  1.41e+02 1.79e-09  1.99e+04    95s
  12   5.30152135e+09  4.62379071e+10  6.69e+01 2.60e-09  1.33e+04    98s
  13   5.46820272e+09  3.11078108e+10  4.89e+01 1.53e-08  8.40e+03   100s
  14   5.50325978e+09  3.03718625e+10  4.52e+01 1.88e-08  8.12e+03   102s
  15   5.63648965e+09  2.52497242e+10  3.13e+01 1.97e-08  6.36e+03   104s
  16   5.67013883e+09  2.28598992e+10  2.78e+01 2.05e-08  5.58e+03   106s
  17   5.75861643e+09  2.04959786e+10  1.87e+01 1.92e-08  4.73e+03   109s
  18   5.78402306e+09  1.87539224e+10  1.62e+01 2.02e-08  4.17e+03   111s
  19   5.78925802e+09  1.85024357e+10  1.56e+01 1.86e-08  4.08e+03   114s
  20   5.81251807e+09  1.45008368e+10  1.32e+01 2.61e-08  2.86e+03   118s
  21   5.83284856e+09  1.31416405e+10  1.11e+01 3.61e-08  2.41e+03   121s
  22   5.84422358e+09  1.21808917e+10  9.89e+00 3.88e-08  2.11e+03   124s
  23   5.85591735e+09  1.19137563e+10  8.67e+00 3.92e-08  2.00e+03   127s
  24   5.88136153e+09  1.10044083e+10  6.44e+00 4.51e-08  1.69e+03   130s
  25   5.89136293e+09  1.03440118e+10  6.07e+00 5.00e-08  1.49e+03   134s
  26   5.90178568e+09  1.02219060e+10  5.55e+00 5.03e-08  1.43e+03   137s
  27   5.90602542e+09  9.24161029e+09  5.27e+00 4.22e-08  1.13e+03   141s
  28   5.92455823e+09  8.58679036e+09  3.59e+00 4.34e-08  8.88e+02   144s
  29   5.93397911e+09  8.50204582e+09  2.98e+00 4.71e-08  8.44e+02   148s
  30   5.93465144e+09  8.12969158e+09  2.82e+00 5.24e-08  7.25e+02   152s
  31   5.94308985e+09  7.95425465e+09  2.23e+00 4.45e-08  6.55e+02   155s
  32   5.94532971e+09  7.85657910e+09  1.98e+00 5.16e-08  6.19e+02   158s
  33   5.95692449e+09  7.62743469e+09  1.25e+00 7.04e-08  5.29e+02   162s
  34   5.96154266e+09  6.99358806e+09  1.03e+00 6.00e-08  3.27e+02   165s
  35   5.96751561e+09  6.56888941e+09  6.37e-01 5.56e-08  1.88e+02   169s
  36   5.97004515e+09  6.34021538e+09  5.46e-01 6.03e-08  1.16e+02   172s
  37   5.97404809e+09  6.22627793e+09  3.90e-01 5.65e-08  7.86e+01   176s
  38   5.98083921e+09  6.14422173e+09  1.57e-01 5.45e-08  5.02e+01   179s
  39   5.98211790e+09  6.10839776e+09  1.42e-01 7.29e-08  3.89e+01   182s
  40   5.98500050e+09  6.10002135e+09  1.12e-01 7.74e-08  3.53e+01   185s
  41   5.98565304e+09  6.09058295e+09  1.06e-01 9.02e-08  3.22e+01   187s
  42   5.98781322e+09  6.08616334e+09  8.77e-02 8.19e-08  3.02e+01   189s
  43   5.98878728e+09  6.07805084e+09  8.35e-02 8.71e-08  2.74e+01   191s
  44   5.98949687e+09  6.07517612e+09  7.92e-02 1.04e-07  2.63e+01   193s
  45   5.98993642e+09  6.07279183e+09  7.67e-02 1.01e-07  2.54e+01   195s
  46   5.99043155e+09  6.07149123e+09  7.38e-02 9.93e-08  2.48e+01   197s
  47   5.99091448e+09  6.06655700e+09  7.10e-02 1.07e-07  2.32e+01   199s
  48   5.99210022e+09  6.06457067e+09  6.50e-02 9.96e-08  2.22e+01   201s
  49   5.99236296e+09  6.06369364e+09  6.37e-02 1.15e-07  2.19e+01   203s
  50   5.99288955e+09  6.06186839e+09  6.11e-02 1.38e-07  2.11e+01   205s
  51   5.99322237e+09  6.05963226e+09  5.95e-02 1.33e-07  2.03e+01   207s
  52   5.99406310e+09  6.05451285e+09  5.55e-02 1.11e-07  1.85e+01   209s
  53   5.99703438e+09  6.05110100e+09  3.99e-02 1.03e-07  1.65e+01   212s
  54   5.99897113e+09  6.04779466e+09  3.29e-02 1.23e-07  1.49e+01   215s
  55   5.99994011e+09  6.04019810e+09  2.94e-02 1.17e-07  1.23e+01   218s
  56   6.00091350e+09  6.03674306e+09  2.68e-02 1.18e-07  1.09e+01   221s
  57   6.00206066e+09  6.03424432e+09  2.37e-02 1.09e-07  9.83e+00   225s
  58   6.00301515e+09  6.03183404e+09  2.14e-02 1.03e-07  8.81e+00   228s
  59   6.00414775e+09  6.03047882e+09  1.90e-02 1.03e-07  8.04e+00   232s
  60   6.00499244e+09  6.02829644e+09  1.74e-02 9.92e-08  7.12e+00   235s
  61   6.00593708e+09  6.02760011e+09  1.54e-02 1.14e-07  6.62e+00   239s
  62   6.00690731e+09  6.02690212e+09  1.36e-02 1.10e-07  6.11e+00   242s
  63   6.00823274e+09  6.02381481e+09  1.11e-02 8.90e-08  4.76e+00   245s
  64   6.00954605e+09  6.02187812e+09  8.77e-03 1.15e-07  3.77e+00   249s
  65   6.01071927e+09  6.02020079e+09  6.89e-03 8.89e-08  2.90e+00   252s
  66   6.01142379e+09  6.01922469e+09  5.80e-03 7.61e-08  2.39e+00   256s
  67   6.01203476e+09  6.01804964e+09  4.91e-03 7.56e-08  1.84e+00   260s
  68   6.01251800e+09  6.01767873e+09  4.12e-03 8.55e-08  1.58e+00   264s
  69   6.01280641e+09  6.01712498e+09  3.82e-03 8.68e-08  1.32e+00   268s
  70   6.01350028e+09  6.01659186e+09  2.74e-03 7.02e-08  9.48e-01   272s
  71   6.01397319e+09  6.01621757e+09  1.98e-03 8.73e-08  6.88e-01   276s
  72   6.01463279e+09  6.01580423e+09  9.54e-04 7.30e-08  3.59e-01   280s
  73   6.01492897e+09  6.01550643e+09  4.95e-04 5.94e-08  1.77e-01   283s
  74   6.01501905e+09  6.01535068e+09  3.62e-04 6.84e-08  1.02e-01   287s
  75   6.01512466e+09  6.01531936e+09  2.06e-04 6.96e-08  5.99e-02   289s
  76   6.01521241e+09  6.01528759e+09  7.16e-05 6.08e-08  2.31e-02   291s
  77   6.01524595e+09  6.01526966e+09  2.16e-05 5.37e-08  7.29e-03   294s
  78   6.01525517e+09  6.01526494e+09  8.73e-06 6.40e-08  3.01e-03   296s
  79   6.01526070e+09  6.01526340e+09  1.88e-06 5.90e-08  8.32e-04   298s
  80   6.01526221e+09  6.01526263e+09  3.00e-07 6.76e-08  1.30e-04   300s

Barrier performed 80 iterations in 300.07 seconds (206.96 work units)
Time limit reached



Root relaxation: time limit, 0 iterations, 244.09 seconds (84.63 work units)

Explored 1 nodes (0 simplex iterations) in 300.42 seconds (204.02 work units)
Thread count was 16 (of 16 available processors)

Solution count 0

Time limit reached
Best objective -, best bound 1.262369439070e+13, gap -
IIS computation: initial model status unknown, solving to determine model status
Presolve removed 71017 rows and 62983 columns (presolve time = 5s) ...
Presolve removed 74000 rows and 127876 columns (presolve time = 10s) ...
Presolve removed 133857 rows and 130514 columns (presolve time = 15s) ...
Presolve removed 133979 rows and 130920 columns (presolve time = 20s) ...
Presolve removed 136019 rows and 133068 columns (presolve time = 25s) ...
Presolve removed 138179 rows and 135348 columns (presolve time = 30s) ...
Presolve removed 142499 rows and 139908 columns (presolve time = 35s) ...
Presolve removed 149865 rows and 149802 columns (presolve time = 40s) ...
Presolve removed 150523 rows and 150442 columns (presolve time = 45s) ...
Presolve removed 150491 rows and 150410 columns
Presolve time: 49.52s
Presolved: 65258 rows, 1652132 columns, 9637481 nonzeros
Variable types: 3143 continuous, 1648989 integer (1648989 binary)
Deterministic concurrent LP optimizer: primal simplex, dual simplex, and barrier
Showing barrier log only...

Root barrier log...

Ordering time: 3.63s

Barrier statistics:
 AA' NZ     : 4.406e+06
 Factor NZ  : 1.575e+07 (roughly 800 MB of memory)
 Factor Ops : 2.723e+10 (less than 1 second per iteration)
 Threads    : 5

                  Objective                Residual
Iter       Primal          Dual         Primal    Dual     Compl     Time
   0  -0.00000000e+00  1.29213170e+05  6.33e+09 0.00e+00  1.17e+04    86s
   1  -0.00000000e+00  2.15857453e+05  9.93e+08 4.95e-03  1.84e+03    88s
   2  -0.00000000e+00  1.54973212e+05  8.84e+06 1.11e-16  1.64e+01    89s
   3  -0.00000000e+00  1.17489008e+05  1.76e+06 1.11e-16  3.31e+00    91s
   4  -0.00000000e+00  5.71683405e+04  8.69e+05 6.40e-17  8.61e-01    93s
   5  -0.00000000e+00  3.98115869e+04  2.18e+05 4.79e-17  1.72e-01    95s
   6  -0.00000000e+00  8.01918409e+03  8.02e+04 1.02e-07  1.92e-02    97s
   7  -0.00000000e+00  1.91918479e+03  2.14e+04 1.57e-07  2.35e-03    99s
   8  -0.00000000e+00  5.34541717e+02  4.16e+03 1.00e-07  3.67e-04   102s
   9  -0.00000000e+00  8.53598856e+01  2.83e+02 7.12e-08  3.33e-05   104s
  10  -0.00000000e+00  5.57927754e+01  9.01e+01 5.17e-08  1.91e-05   106s
  11  -0.00000000e+00  4.65230057e+01  7.07e+01 4.37e-08  1.58e-05   108s
  12  -0.00000000e+00  3.62591440e+01  5.46e+01 3.51e-08  1.23e-05   109s
  13  -0.00000000e+00  2.61049624e+01  4.24e+01 2.58e-08  8.90e-06   111s
  14  -0.00000000e+00  2.10640733e+01  3.03e+01 2.23e-08  7.11e-06   113s
  15  -0.00000000e+00  1.82071313e+01  2.60e+01 2.01e-08  6.16e-06   115s
  16  -0.00000000e+00  1.52824465e+01  1.66e+01 1.79e-08  5.05e-06   117s
  17  -0.00000000e+00  1.34727716e+01  1.49e+01 1.53e-08  4.47e-06   120s
  18  -0.00000000e+00  9.43216488e+00  1.16e+01 1.47e-08  3.19e-06   123s
  19  -0.00000000e+00  8.72770327e+00  1.01e+01 1.53e-08  2.95e-06   125s
  20  -0.00000000e+00  7.10216164e+00  8.37e+00 1.72e-08  2.43e-06   128s
  21  -0.00000000e+00  6.46771976e+00  6.58e+00 2.30e-08  2.20e-06   131s
  22  -0.00000000e+00  5.26896833e+00  5.34e+00 3.26e-08  1.82e-06   133s
  23  -0.00000000e+00  4.83467694e+00  4.26e+00 3.78e-08  1.65e-06   136s
  24  -0.00000000e+00  3.25706064e+00  2.36e+00 5.01e-08  1.08e-06   139s
  25  -0.00000000e+00  2.12706310e+00  2.09e+00 4.24e-08  7.14e-07   141s
  26  -0.00000000e+00  1.25894348e+00  9.49e-01 3.67e-08  4.04e-07   144s
  27  -0.00000000e+00  4.09342160e-01  2.34e-01 2.31e-08  1.29e-07   147s
  28  -0.00000000e+00  1.55317974e-01  1.47e-02 1.21e-08  4.88e-08   149s
  29  -0.00000000e+00  2.40105952e-03  1.90e-04 3.95e-10  8.17e-10   151s
  30  -0.00000000e+00  4.33752817e-07  1.09e-08 7.21e-14  1.48e-13   153s
  31  -0.00000000e+00  2.11862793e-12  3.35e-11 1.15e-16  7.21e-19   155s

Barrier solved model in 31 iterations and 155.12 seconds (177.58 work units)
Optimal objective -0.00000000e+00

  Building initial crossover basis                               165s
  Building initial crossover basis                               171s
  Building initial crossover basis                               175s
  Building initial crossover basis                               181s
  Building initial crossover basis                               186s
  Building initial crossover basis                               191s
  Building initial crossover basis                               196s
  Building initial crossover basis                               201s
  Building initial crossover basis                               206s
  Building initial crossover basis                               210s
  Building initial crossover basis                               215s
  Building initial crossover basis                               220s
  Building initial crossover basis                               225s
  Building initial crossover basis                               232s
  Building initial crossover basis                               237s
  Building initial crossover basis                               241s
  Building initial crossover basis                               246s
  Building initial crossover basis                               250s
  Building initial crossover basis                               255s
  Building initial crossover basis                               261s
  Building initial crossover basis                               266s
  Building initial crossover basis                               271s
  Building initial crossover basis                               275s
  Building initial crossover basis                               281s
  Building initial crossover basis                               286s
  Building initial crossover basis                               292s

Root crossover log...

   55120 DPushes remaining with DInf 5.2553122e+00               296s
       0 DPushes remaining with DInf 0.0000000e+00               296s

     687 PPushes remaining with PInf 2.8208389e-04               296s
       0 PPushes remaining with PInf 0.0000000e+00               296s

  Push phase complete: Pinf 0.0000000e+00, Dinf 0.0000000e+00    296s


Root simplex log...

Iteration    Objective       Primal Inf.    Dual Inf.      Time
    3095   -0.0000000e+00   0.000000e+00   0.000000e+00    296s
Concurrent spin time: 0.01s

Solved with barrier
    3095   -0.0000000e+00   0.000000e+00   0.000000e+00    297s

Root relaxation: objective -0.000000e+00, 3095 iterations, 224.45 seconds (121.04 work units)

    Nodes    |    Current Node    |     Objective Bounds      |     Work
 Expl Unexpl |  Obj  Depth IntInf | Incumbent    BestBd   Gap | It/Node Time

     0     0   -0.00000    0  891          -   -0.00000      -     -  300s

Explored 1 nodes (3134 simplex iterations) in 300.10 seconds (250.80 work units)
Thread count was 16 (of 16 available processors)

Solution count 0

Time limit reached
Best objective -, best bound -0.000000000000e+00, gap -
IIS runtime: 300.26 seconds (250.80 work units)
